language Essence 1.3

letting class be
        function(1 --> 4, 2 --> 9, 3 --> 8, 4 --> 9, 5 --> 3, 6 --> 9, 7 --> 4, 8 --> 7, 9 --> 9, 10 --> 8, 11 --> 4,
                 12 --> 1, 13 --> 4, 14 --> 2, 15 --> 8, 16 --> 3, 17 --> 4, 18 --> 9, 19 --> 5, 20 --> 4, 21 --> 6,
                 22 --> 6, 23 --> 1, 24 --> 9, 25 --> 2, 26 --> 7, 27 --> 6, 28 --> 8)
letting deck_length be 16
letting deck_width be 87
letting length be
        function(1 --> 10, 2 --> 1, 3 --> 6, 4 --> 6, 5 --> 11, 6 --> 15, 7 --> 16, 8 --> 14, 9 --> 3, 10 --> 7,
                 11 --> 13, 12 --> 1, 13 --> 13, 14 --> 5, 15 --> 16, 16 --> 12, 17 --> 7, 18 --> 8, 19 --> 14,
                 20 --> 10, 21 --> 1, 22 --> 9, 23 --> 14, 24 --> 4, 25 --> 13, 26 --> 16, 27 --> 12, 28 --> 1)
letting n_classes be 9
letting n_containers be 28
letting separation be function()
letting width be
        function(1 --> 1, 2 --> 1, 3 --> 1, 4 --> 1, 5 --> 1, 6 --> 17, 7 --> 3, 8 --> 1, 9 --> 1, 10 --> 1, 11 --> 1,
                 12 --> 1, 13 --> 1, 14 --> 1, 15 --> 13, 16 --> 3, 17 --> 2, 18 --> 1, 19 --> 15, 20 --> 1, 21 --> 2,
                 22 --> 1, 23 --> 1, 24 --> 1, 25 --> 3, 26 --> 6, 27 --> 1, 28 --> 2)
